
245
500
   350      2
   349      7
   348      3
   347      3
   346      2
   345      5
   344      2
   343     10
   342      2
   341      5
   340      4
   339      5
   338      3
   337     10
   336      5
   335      5
   334      3
   333      5
   332      2
   331      6
   329      5
   328      3
   327      4
   326      8
   325      4
   324      5
   323      2
   322      4
   321      4
   320      4
   319      3
   318      4
   317      4
   316      4
   314      4
   313      7
   312      2
   311      4
   310      2
   309      4
   308      6
   307      3
   306      5
   305      3
   304      2
   303      2
   302      3
   301      6
   300      7
   299      7
   298      2
   297      5
   296      4
   295      4
   294      2
   293      3
   292      9
   291      5
   290      7
   289      2
   288      6
   287      4
   286      5
   285      4
   284      6
   283      2
   282      3
   281      3
   280      2
   279      6
   278     10
   277      3
   276      3
   275      6
   274      4
   273      7
   272      4
   271      6
   270      2
   269      2
   268      2
   267      2
   266      2
   264      2
   263      5
   262      7
   261      4
   260      6
   259      5
   258      4
   257      6
   256      2
   255      6
   254      5
   253      3
   252      5
   251      3
   250      4
   249      3
   248      3
   247      2
   246      6
   245      5
   244      3
   243      6
   242      4
   241      2
   240      3
   239      6
   238      6
   237      4
   236      3
   235      5
   234      4
   233      7
   232      3
   231      7
   230      3
   229      3
   228      4
   227      1
   226      6
   225      3
   224      5
   223      6
   222      5
   221      2
   220      4
   219     10
   218      4
   217      4
   216      2
   215      3
   214      4
   213      5
   212      6
   211      3
   210      3
   209      7
   208      4
   207      9
   206      5
   205      7
   204      4
   203      3
   202      3
   201      3
   199      2
   198      9
   197      6
   196      1
   195      5
   194      5
   193      4
   192      1
   191      5
   190      6
   189      3
   188      3
   187      8
   186      4
   185      3
   184      2
   183      4
   182      5
   181      3
   180      3
   179      6
   178      4
   177      1
   176      4
   175      1
   174      2
   173      3
   172      4
   171      3
   170      2
   169      5
   168      3
   167      4
   166      8
   165      3
   164      2
   163      2
   162      4
   161      6
   160      5
   159      3
   158      7
   157      6
   156      3
   155      5
   154      3
   153      4
   152      4
   151      1
   150      3
   149      4
   148      4
   147      1
   146      3
   145      2
   144      5
   143      1
   142      3
   141      7
   140      5
   139      4
   138      4
   137      3
   136      3
   135      4
   134      6
   133      3
   132      2
   131      3
   130      1
   129      3
   128      4
   127      5
   125      6
   124      4
   123      4
   122      3
   121      2
   120      5
   119      5
   117      4
   116      6
   115      2
   114      1
   113      5
   112      1
   111      4
   110      7
   109      2
   108      7
   107      7
   106      2
   105      3
   104      5
   103      4
   102      1
   101      2
   100      4




The initial LP solution: time=0.66


File: BPP_1000_500_0.2_0.7_9.txt  Instance No. 1
Wed Feb 25 13:55:56 2015

LP solution: lpval=459.8749999999999 lpbnd=460

1: 0:1 198:1 obj 1\\
3: 1:1 198:1 obj 1\\
1: 1:1 199:1 obj 1\\
3: 1:1 200:1 obj 1\\
3: 2:1 194:1 obj 1\\
1: 3:1 194:1 obj 1\\
2: 3:1 205:1 obj 1\\
0.5999999999999992: 4:1 195:1 obj 1\\
1.400000000000001: 4:1 201:1 obj 1\\
5: 5:1 191:1 obj 1\\
2: 6:1 190:1 obj 1\\
1: 7:1 189:1 obj 1\\
3: 7:1 192:1 obj 1\\
2.599999999999999: 7:1 193:1 obj 1\\
3: 7:1 197:1 obj 1\\
2: 8:1 189:1 obj 1\\
2.6: 9:1 187:1 obj 1\\
1: 9:1 190:1 obj 1\\
3.666666666666666: 10:1 186:1 obj 1\\
5: 11:1 185:1 obj 1\\
3: 12:1 189:1 obj 1\\
4: 13:1 184:1 obj 1\\
0.8166666666666667: 13:1 202:1 obj 1\\
2: 13:1 204:1 obj 1\\
1.183333333333333: 13:1 210:1 obj 1\\
4.6: 14:1 188:1 obj 1\\
3: 15:1 181:1 obj 1\\
0.5: 17:1 213:1 obj 1\\
3.933333333333334: 19:1 179:1 obj 1\\
2.066666666666666: 19:1 188:1 obj 1\\
5: 20:1 177:1 obj 1\\
3: 21:1 178:1 obj 1\\
2: 22:1 173:1 obj 1\\
0.5: 22:1 203:1 obj 1\\
3: 23:1 174:1 obj 1\\
2: 23:1 176:1 obj 1\\
2.933333333333334: 23:1 205:1 obj 1\\
1: 24:1 171:1 obj 1\\
3: 25:1 175:1 obj 1\\
1: 26:1 173:1 obj 1\\
2: 27:1 170:1 obj 1\\
2: 28:1 168:1 obj 1\\
4: 29:1 167:1 obj 1\\
3: 30:1 165:1 obj 1\\
4: 31:1 164:1 obj 1\\
4: 32:1 163:1 obj 1\\
3: 33:1 166:1 obj 1\\
3: 34:1 160:1 obj 1\\
6: 35:1 159:1 obj 1\\
1: 37:1 164:1 obj 1\\
2: 38:1 161:1 obj 1\\
4: 39:1 156:1 obj 1\\
2: 40:1 156:1 obj 1\\
3: 40:1 157:1 obj 1\\
5: 42:1 152:1 obj 1\\
0.5333333333333341: 43:1 153:1 obj 1\\
1: 45:1 150:1 obj 1\\
0.9666666666666659: 45:1 155:1 obj 1\\
3: 46:1 149:1 obj 1\\
5.466666666666666: 47:1 148:1 obj 1\\
0.5333333333333341: 47:1 151:1 obj 1\\
2: 48:1 147:1 obj 1\\
1.533333333333334: 48:1 148:1 obj 1\\
2.966666666666666: 48:1 149:1 obj 1\\
0.5: 48:1 244:2 obj 1\\
2: 49:1 148:1 obj 1\\
3: 51:1 144:1 obj 1\\
1: 51:1 145:1 obj 1\\
4: 52:1 143:1 obj 1\\
4: 53:1 142:1 obj 1\\
2: 54:1 141:1 obj 1\\
3: 55:1 141:1 obj 1\\
8.5: 56:1 140:1 obj 1\\
1.5: 57:1 138:1 obj 1\\
3.5: 57:1 139:1 obj 1\\
5.5: 58:1 138:1 obj 1\\
2: 59:1 136:1 obj 1\\
6: 60:1 135:1 obj 1\\
3.466666666666666: 61:1 134:1 obj 1\\
4: 62:1 133:1 obj 1\\
1: 62:1 237:2 obj 1\\
1.533333333333334: 63:1 134:1 obj 1\\
2.466666666666666: 63:1 233:1 240:1 obj 1\\
0.9666666666666659: 64:1 137:1 obj 1\\
2.033333333333334: 64:1 237:2 obj 1\\
2: 65:1 131:1 obj 1\\
0.5: 67:1 236:2 obj 1\\
1.2: 68:1 129:1 obj 1\\
2: 69:1 126:1 obj 1\\
3.516666666666667: 69:1 130:1 obj 1\\
6.866666666666666: 70:1 128:1 obj 1\\
2.516666666666667: 71:1 124:1 obj 1\\
2: 72:1 124:1 obj 1\\
1: 72:1 231:1 234:1 obj 1\\
3: 73:1 122:1 obj 1\\
2.599999999999999: 73:1 127:1 obj 1\\
2.599999999999999: 74:1 125:1 obj 1\\
1.400000000000001: 74:1 127:1 obj 1\\
5: 75:1 123:1 obj 1\\
3: 76:1 119:1 obj 1\\
5: 77:1 121:1 obj 1\\
2: 78:1 118:1 obj 1\\
2: 80:1 222:1 235:1 obj 1\\
2: 82:1 113:1 obj 1\\
2: 83:1 113:1 obj 1\\
3: 84:1 111:1 obj 1\\
1: 84:1 115:1 obj 1\\
4: 85:1 109:1 obj 1\\
1: 85:1 110:1 obj 1\\
2: 86:1 109:1 obj 1\\
3: 87:1 108:1 obj 1\\
3: 88:1 107:1 obj 1\\
4: 89:1 105:1 obj 1\\
6: 90:1 104:1 obj 1\\
1: 91:1 136:1 obj 1\\
1: 91:1 224:2 obj 1\\
2: 92:1 114:1 obj 1\\
4: 92:1 211:1 234:1 obj 1\\
5: 93:1 102:1 obj 1\\
0.6666666666666665: 94:1 100:1 obj 1\\
4: 95:1 212:1 231:1 obj 1\\
1: 95:1 217:1 226:1 obj 1\\
1: 96:1 98:1 obj 1\\
2: 97:2 obj 1\\
1: 99:2 obj 1\\
3: 101:2 obj 1\\
0.5999999999999993: 106:1 201:1 230:1 obj 1\\
1.700000000000001: 116:1 202:1 220:1 obj 1\\
2.333333333333333: 116:1 206:1 219:1 obj 1\\
0.9833333333333329: 124:1 208:2 obj 1\\
1.5: 129:1 207:2 obj 1\\
0.5: 56:1 139:1 obj 1\\
0.4833333333333329: 69:1 129:1 obj 1\\
1: 214:2 216:1 238:1 obj 1\\
0.5333333333333341: 61:1 137:1 obj 1\\
3: 66:1 236:2 obj 1\\
0.7999999999999996: 68:1 234:2 obj 1\\
2: 81:1 115:1 obj 1\\
2: 98:1 103:1 obj 1\\
0.6666666666666667: 100:2 obj 1\\
0.3333333333333344: 10:1 188:1 obj 1\\
1: 16:1 185:1 obj 1\\
1.333333333333334: 18:1 186:1 obj 1\\
0.6666666666666655: 18:1 202:1 obj 1\\
2: 28:1 167:1 obj 1\\
2: 36:1 159:1 obj 1\\
0.4000000000000008: 7:1 195:1 obj 1\\
2: 13:1 183:1 obj 1\\
0.06666666666666599: 23:1 179:1 obj 1\\
2: 24:1 172:1 obj 1\\
1: 34:1 161:1 obj 1\\
1.5: 58:1 137:1 obj 1\\
0.4833333333333329: 71:1 130:1 obj 1\\
1: 75:1 121:1 obj 1\\
3: 87:1 117:1 obj 1\\
1.966666666666666: 88:1 116:1 obj 1\\
0.0333333333333341: 88:1 208:1 242:1 obj 1\\
2: 96:1 212:1 229:1 obj 1\\
1: 99:1 103:1 obj 1\\
1: 0:1 197:1 obj 1\\
4.5: 17:1 180:1 obj 1\\
2: 25:1 170:1 obj 1\\
2: 44:1 151:1 obj 1\\
3: 64:1 132:1 obj 1\\
2.400000000000001: 70:1 125:1 obj 1\\
2.333333333333333: 94:1 215:1 228:1 obj 1\\
3: 112:1 209:1 218:1 obj 1\\
0.8166666666666667: 129:1 202:1 210:1 obj 1\\
1: 210:1 225:3 obj 1\\
0.6666666666666666: 215:1 223:3 obj 1\\
0.01666666666666711: 221:4 obj 1\\
1.4: 9:1 193:1 obj 1\\
0.4000000000000004: 14:1 187:1 obj 1\\
2: 15:1 182:1 obj 1\\
2: 16:1 180:1 obj 1\\
1.5: 22:1 180:1 obj 1\\
1: 24:1 174:1 obj 1\\
1: 26:1 169:1 obj 1\\
2: 27:1 168:1 obj 1\\
1: 40:1 154:1 obj 1\\
3: 49:1 146:1 obj 1\\
2: 50:1 145:1 obj 1\\
2.5: 67:1 128:1 obj 1\\
1: 79:1 119:1 obj 1\\
1.400000000000001: 106:1 206:1 226:1 obj 1\\
3: 114:1 196:1 227:1 obj 1\\
1: 118:1 204:1 220:1 obj 1\\
0.5: 124:1 203:1 213:1 obj 1\\
2.533333333333334: 142:1 155:1 240:1 obj 1\\
1: 162:1 238:1 239:2 obj 1\\
1: 33:1 162:1 obj 1\\
1: 35:1 160:1 obj 1\\
3: 37:1 158:1 obj 1\\
2.466666666666666: 43:1 151:1 obj 1\\
0.4000000000000007: 73:1 230:1 234:1 obj 1\\
1: 75:1 120:1 obj 1\\
1: 76:1 222:1 239:1 obj 1\\
1: 77:1 227:1 232:1 obj 1\\
0.9333333333333316: 79:1 221:1 237:1 obj 1\\
0.06666666666666848: 79:1 226:1 233:1 obj 1\\
1: 84:1 110:1 obj 1\\
2: 85:1 112:1 obj 1\\
2: 86:1 108:1 obj 1\\
1: 108:1 207:1 223:1 obj 1\\
2: 110:1 213:1 217:1 obj 1\\
2: 114:1 208:1 219:1 obj 1\\
0.5: 140:1 155:1 242:1 obj 1\\
1: 155:1 241:3 obj 1\\
3: 41:1 153:1 obj 1\\
0.0333333333333341: 45:1 149:1 obj 1\\
1: 51:1 241:1 244:1 obj 1\\
0.7333333333333327: 70:1 233:2 obj 1\\
1: 116:1 202:1 222:1 obj 1\\
0.4666666666666659: 142:1 153:1 242:1 obj 1\\
0.8444444444444437: 205:1 226:3 obj 1\\
1.222222222222222: 205:1 228:3 obj 1\\
1: 218:1 221:3 obj 1\\
0.8249999999999997: 220:4 obj 1\\
2: 49:1 243:1 244:1 obj 1\\
0.6333333333333331: 128:1 206:2 obj 1\\
0.6666666666666666: 219:1 225:3 obj 1\\






File: BPP_1000_500_0.2_0.7_9.txt  Instance No. 1
Wed Feb 25 13:55:56 2015

LP0 Time: 0.66 IPTime: 0.66 The best integer solution (460):

1: 0:1 198:1 obj 1\\
3: 1:1 198:1 obj 1\\
1: 1:1 199:1 obj 1\\
3: 1:1 200:1 obj 1\\
3: 2:1 194:1 obj 1\\
1: 3:1 194:1 obj 1\\
2: 3:1 205:1 obj 1\\
1: 4:1 195:1 obj 1\\
1: 4:1 201:1 obj 1\\
5: 5:1 191:1 obj 1\\
2: 6:1 190:1 obj 1\\
1: 7:1 189:1 obj 1\\
3: 7:1 192:1 obj 1\\
3: 7:1 193:1 obj 1\\
3: 7:1 197:1 obj 1\\
2: 8:1 189:1 obj 1\\
3: 9:1 187:1 obj 1\\
1: 9:1 190:1 obj 1\\
4: 10:1 186:1 obj 1\\
5: 11:1 185:1 obj 1\\
3: 12:1 189:1 obj 1\\
4: 13:1 184:1 obj 1\\
1: 13:1 202:1 obj 1\\
2: 13:1 204:1 obj 1\\
1: 13:1 210:1 obj 1\\
5: 14:1 188:1 obj 1\\
3: 15:1 181:1 obj 1\\
1: 17:1 213:1 obj 1\\
4: 19:1 179:1 obj 1\\
2: 19:1 188:1 obj 1\\
5: 20:1 177:1 obj 1\\
3: 21:1 178:1 obj 1\\
2: 22:1 173:1 obj 1\\
3: 23:1 174:1 obj 1\\
2: 23:1 176:1 obj 1\\
3: 23:1 205:1 obj 1\\
1: 24:1 171:1 obj 1\\
3: 25:1 175:1 obj 1\\
1: 26:1 173:1 obj 1\\
2: 27:1 170:1 obj 1\\
2: 28:1 168:1 obj 1\\
4: 29:1 167:1 obj 1\\
3: 30:1 165:1 obj 1\\
4: 31:1 164:1 obj 1\\
4: 32:1 163:1 obj 1\\
3: 33:1 166:1 obj 1\\
3: 34:1 160:1 obj 1\\
6: 35:1 159:1 obj 1\\
1: 37:1 164:1 obj 1\\
2: 38:1 161:1 obj 1\\
4: 39:1 156:1 obj 1\\
2: 40:1 156:1 obj 1\\
3: 40:1 157:1 obj 1\\
5: 42:1 152:1 obj 1\\
1: 43:1 153:1 obj 1\\
1: 45:1 150:1 obj 1\\
1: 45:1 155:1 obj 1\\
3: 46:1 149:1 obj 1\\
5: 47:1 148:1 obj 1\\
1: 47:1 151:1 obj 1\\
2: 48:1 147:1 obj 1\\
2: 48:1 148:1 obj 1\\
3: 48:1 149:1 obj 1\\
2: 49:1 148:1 obj 1\\
3: 51:1 144:1 obj 1\\
1: 51:1 145:1 obj 1\\
4: 52:1 143:1 obj 1\\
4: 53:1 142:1 obj 1\\
2: 54:1 141:1 obj 1\\
3: 55:1 141:1 obj 1\\
9: 56:1 140:1 obj 1\\
2: 57:1 138:1 obj 1\\
3: 57:1 139:1 obj 1\\
5: 58:1 138:1 obj 1\\
2: 59:1 136:1 obj 1\\
6: 60:1 135:1 obj 1\\
3: 61:1 134:1 obj 1\\
4: 62:1 133:1 obj 1\\
1: 62:1 237:2 obj 1\\
2: 63:1 134:1 obj 1\\
2: 63:1 233:1 240:1 obj 1\\
1: 64:1 137:1 obj 1\\
2: 64:1 237:2 obj 1\\
2: 65:1 131:1 obj 1\\
1: 68:1 129:1 obj 1\\
2: 69:1 126:1 obj 1\\
4: 69:1 130:1 obj 1\\
7: 70:1 128:1 obj 1\\
3: 71:1 124:1 obj 1\\
2: 72:1 124:1 obj 1\\
1: 72:1 231:1 234:1 obj 1\\
3: 73:1 122:1 obj 1\\
3: 73:1 127:1 obj 1\\
3: 74:1 125:1 obj 1\\
1: 74:1 127:1 obj 1\\
5: 75:1 123:1 obj 1\\
3: 76:1 119:1 obj 1\\
5: 77:1 121:1 obj 1\\
2: 78:1 118:1 obj 1\\
2: 80:1 222:1 235:1 obj 1\\
2: 82:1 113:1 obj 1\\
2: 83:1 113:1 obj 1\\
3: 84:1 111:1 obj 1\\
1: 84:1 115:1 obj 1\\
4: 85:1 109:1 obj 1\\
1: 85:1 110:1 obj 1\\
2: 86:1 109:1 obj 1\\
3: 87:1 108:1 obj 1\\
3: 88:1 107:1 obj 1\\
4: 89:1 105:1 obj 1\\
6: 90:1 104:1 obj 1\\
1: 91:1 136:1 obj 1\\
1: 91:1 224:2 obj 1\\
2: 92:1 114:1 obj 1\\
4: 92:1 211:1 234:1 obj 1\\
5: 93:1 102:1 obj 1\\
4: 95:1 212:1 231:1 obj 1\\
1: 95:1 217:1 226:1 obj 1\\
1: 96:1 98:1 obj 1\\
2: 97:2 obj 1\\
1: 99:2 obj 1\\
3: 101:2 obj 1\\
1: 106:1 201:1 230:1 obj 1\\
1: 116:1 202:1 220:1 obj 1\\
2: 116:1 206:1 219:1 obj 1\\
1: 124:1 208:2 obj 1\\
1: 129:1 207:2 obj 1\\
1: 214:2 216:1 238:1 obj 1\\
1: 61:1 137:1 obj 1\\
3: 66:1 236:2 obj 1\\
1: 68:1 234:2 obj 1\\
2: 81:1 115:1 obj 1\\
2: 98:1 103:1 obj 1\\
1: 100:2 obj 1\\
1: 16:1 185:1 obj 1\\
1: 18:1 186:1 obj 1\\
1: 18:1 202:1 obj 1\\
2: 28:1 167:1 obj 1\\
2: 36:1 159:1 obj 1\\
2: 13:1 183:1 obj 1\\
2: 24:1 172:1 obj 1\\
1: 34:1 161:1 obj 1\\
1: 58:1 137:1 obj 1\\
1: 75:1 121:1 obj 1\\
3: 87:1 117:1 obj 1\\
2: 88:1 116:1 obj 1\\
2: 96:1 212:1 229:1 obj 1\\
1: 99:1 103:1 obj 1\\
1: 0:1 197:1 obj 1\\
4: 17:1 180:1 obj 1\\
2: 25:1 170:1 obj 1\\
2: 44:1 151:1 obj 1\\
3: 64:1 132:1 obj 1\\
2: 70:1 125:1 obj 1\\
3: 94:1 215:1 228:1 obj 1\\
3: 112:1 209:1 218:1 obj 1\\
1: 129:1 202:1 210:1 obj 1\\
1: 210:1 225:3 obj 1\\
1: 9:1 193:1 obj 1\\
2: 15:1 182:1 obj 1\\
2: 16:1 180:1 obj 1\\
2: 22:1 180:1 obj 1\\
1: 24:1 174:1 obj 1\\
1: 26:1 169:1 obj 1\\
2: 27:1 168:1 obj 1\\
1: 40:1 154:1 obj 1\\
3: 49:1 146:1 obj 1\\
2: 50:1 145:1 obj 1\\
2: 67:1 128:1 obj 1\\
1: 79:1 119:1 obj 1\\
1: 106:1 206:1 226:1 obj 1\\
3: 114:1 196:1 227:1 obj 1\\
1: 118:1 204:1 220:1 obj 1\\
3: 142:1 155:1 240:1 obj 1\\
1: 162:1 238:1 239:2 obj 1\\
1: 33:1 162:1 obj 1\\
1: 35:1 160:1 obj 1\\
3: 37:1 158:1 obj 1\\
2: 43:1 151:1 obj 1\\
1: 75:1 120:1 obj 1\\
1: 76:1 222:1 239:1 obj 1\\
1: 77:1 227:1 232:1 obj 1\\
1: 79:1 221:1 237:1 obj 1\\
1: 84:1 110:1 obj 1\\
2: 85:1 112:1 obj 1\\
2: 86:1 108:1 obj 1\\
1: 108:1 207:1 223:1 obj 1\\
2: 110:1 213:1 217:1 obj 1\\
2: 114:1 208:1 219:1 obj 1\\
1: 155:1 241:3 obj 1\\
3: 41:1 153:1 obj 1\\
1: 51:1 241:1 244:1 obj 1\\
1: 70:1 233:2 obj 1\\
1: 116:1 202:1 222:1 obj 1\\
1: 205:1 226:3 obj 1\\
1: 205:1 228:3 obj 1\\
1: 218:1 221:3 obj 1\\
1: 220:4 obj 1\\
2: 49:1 243:1 244:1 obj 1\\
1: 128:1 206:2 obj 1\\
1: 58:1 236:1 242:1 obj 1\\
1: 129:1 203:1 207:1 obj 1\\
1: 67:1 139:1 obj 1\\
1: 116:1 219:1 225:1 obj 1\\
1: 223:2 225:1 244:1 obj 1\\



The last LP solution 


File: BPP_1000_500_0.2_0.7_9.txt  Instance No. 1
Wed Feb 25 13:55:56 2015

LP solution: lpval=459.8749999999999 lpbnd=460

1: 0:1 198:1 obj 1\\
3: 1:1 198:1 obj 1\\
1: 1:1 199:1 obj 1\\
3: 1:1 200:1 obj 1\\
3: 2:1 194:1 obj 1\\
1: 3:1 194:1 obj 1\\
2: 3:1 205:1 obj 1\\
0.5999999999999992: 4:1 195:1 obj 1\\
1.400000000000001: 4:1 201:1 obj 1\\
5: 5:1 191:1 obj 1\\
2: 6:1 190:1 obj 1\\
1: 7:1 189:1 obj 1\\
3: 7:1 192:1 obj 1\\
2.599999999999999: 7:1 193:1 obj 1\\
3: 7:1 197:1 obj 1\\
2: 8:1 189:1 obj 1\\
2.6: 9:1 187:1 obj 1\\
1: 9:1 190:1 obj 1\\
3.666666666666666: 10:1 186:1 obj 1\\
5: 11:1 185:1 obj 1\\
3: 12:1 189:1 obj 1\\
4: 13:1 184:1 obj 1\\
0.8166666666666667: 13:1 202:1 obj 1\\
2: 13:1 204:1 obj 1\\
1.183333333333333: 13:1 210:1 obj 1\\
4.6: 14:1 188:1 obj 1\\
3: 15:1 181:1 obj 1\\
0.5: 17:1 213:1 obj 1\\
3.933333333333334: 19:1 179:1 obj 1\\
2.066666666666666: 19:1 188:1 obj 1\\
5: 20:1 177:1 obj 1\\
3: 21:1 178:1 obj 1\\
2: 22:1 173:1 obj 1\\
0.5: 22:1 203:1 obj 1\\
3: 23:1 174:1 obj 1\\
2: 23:1 176:1 obj 1\\
2.933333333333334: 23:1 205:1 obj 1\\
1: 24:1 171:1 obj 1\\
3: 25:1 175:1 obj 1\\
1: 26:1 173:1 obj 1\\
2: 27:1 170:1 obj 1\\
2: 28:1 168:1 obj 1\\
4: 29:1 167:1 obj 1\\
3: 30:1 165:1 obj 1\\
4: 31:1 164:1 obj 1\\
4: 32:1 163:1 obj 1\\
3: 33:1 166:1 obj 1\\
3: 34:1 160:1 obj 1\\
6: 35:1 159:1 obj 1\\
1: 37:1 164:1 obj 1\\
2: 38:1 161:1 obj 1\\
4: 39:1 156:1 obj 1\\
2: 40:1 156:1 obj 1\\
3: 40:1 157:1 obj 1\\
5: 42:1 152:1 obj 1\\
0.5333333333333341: 43:1 153:1 obj 1\\
1: 45:1 150:1 obj 1\\
0.9666666666666659: 45:1 155:1 obj 1\\
3: 46:1 149:1 obj 1\\
5.466666666666666: 47:1 148:1 obj 1\\
0.5333333333333341: 47:1 151:1 obj 1\\
2: 48:1 147:1 obj 1\\
1.533333333333334: 48:1 148:1 obj 1\\
2.966666666666666: 48:1 149:1 obj 1\\
0.5: 48:1 244:2 obj 1\\
2: 49:1 148:1 obj 1\\
3: 51:1 144:1 obj 1\\
1: 51:1 145:1 obj 1\\
4: 52:1 143:1 obj 1\\
4: 53:1 142:1 obj 1\\
2: 54:1 141:1 obj 1\\
3: 55:1 141:1 obj 1\\
8.5: 56:1 140:1 obj 1\\
1.5: 57:1 138:1 obj 1\\
3.5: 57:1 139:1 obj 1\\
5.5: 58:1 138:1 obj 1\\
2: 59:1 136:1 obj 1\\
6: 60:1 135:1 obj 1\\
3.466666666666666: 61:1 134:1 obj 1\\
4: 62:1 133:1 obj 1\\
1: 62:1 237:2 obj 1\\
1.533333333333334: 63:1 134:1 obj 1\\
2.466666666666666: 63:1 233:1 240:1 obj 1\\
0.9666666666666659: 64:1 137:1 obj 1\\
2.033333333333334: 64:1 237:2 obj 1\\
2: 65:1 131:1 obj 1\\
0.5: 67:1 236:2 obj 1\\
1.2: 68:1 129:1 obj 1\\
2: 69:1 126:1 obj 1\\
3.516666666666667: 69:1 130:1 obj 1\\
6.866666666666666: 70:1 128:1 obj 1\\
2.516666666666667: 71:1 124:1 obj 1\\
2: 72:1 124:1 obj 1\\
1: 72:1 231:1 234:1 obj 1\\
3: 73:1 122:1 obj 1\\
2.599999999999999: 73:1 127:1 obj 1\\
2.599999999999999: 74:1 125:1 obj 1\\
1.400000000000001: 74:1 127:1 obj 1\\
5: 75:1 123:1 obj 1\\
3: 76:1 119:1 obj 1\\
5: 77:1 121:1 obj 1\\
2: 78:1 118:1 obj 1\\
2: 80:1 222:1 235:1 obj 1\\
2: 82:1 113:1 obj 1\\
2: 83:1 113:1 obj 1\\
3: 84:1 111:1 obj 1\\
1: 84:1 115:1 obj 1\\
4: 85:1 109:1 obj 1\\
1: 85:1 110:1 obj 1\\
2: 86:1 109:1 obj 1\\
3: 87:1 108:1 obj 1\\
3: 88:1 107:1 obj 1\\
4: 89:1 105:1 obj 1\\
6: 90:1 104:1 obj 1\\
1: 91:1 136:1 obj 1\\
1: 91:1 224:2 obj 1\\
2: 92:1 114:1 obj 1\\
4: 92:1 211:1 234:1 obj 1\\
5: 93:1 102:1 obj 1\\
0.6666666666666665: 94:1 100:1 obj 1\\
4: 95:1 212:1 231:1 obj 1\\
1: 95:1 217:1 226:1 obj 1\\
1: 96:1 98:1 obj 1\\
2: 97:2 obj 1\\
1: 99:2 obj 1\\
3: 101:2 obj 1\\
0.5999999999999993: 106:1 201:1 230:1 obj 1\\
1.700000000000001: 116:1 202:1 220:1 obj 1\\
2.333333333333333: 116:1 206:1 219:1 obj 1\\
0.9833333333333329: 124:1 208:2 obj 1\\
1.5: 129:1 207:2 obj 1\\
0.5: 56:1 139:1 obj 1\\
0.4833333333333329: 69:1 129:1 obj 1\\
1: 214:2 216:1 238:1 obj 1\\
0.5333333333333341: 61:1 137:1 obj 1\\
3: 66:1 236:2 obj 1\\
0.7999999999999996: 68:1 234:2 obj 1\\
2: 81:1 115:1 obj 1\\
2: 98:1 103:1 obj 1\\
0.6666666666666667: 100:2 obj 1\\
0.3333333333333344: 10:1 188:1 obj 1\\
1: 16:1 185:1 obj 1\\
1.333333333333334: 18:1 186:1 obj 1\\
0.6666666666666655: 18:1 202:1 obj 1\\
2: 28:1 167:1 obj 1\\
2: 36:1 159:1 obj 1\\
0.4000000000000008: 7:1 195:1 obj 1\\
2: 13:1 183:1 obj 1\\
0.06666666666666599: 23:1 179:1 obj 1\\
2: 24:1 172:1 obj 1\\
1: 34:1 161:1 obj 1\\
1.5: 58:1 137:1 obj 1\\
0.4833333333333329: 71:1 130:1 obj 1\\
1: 75:1 121:1 obj 1\\
3: 87:1 117:1 obj 1\\
1.966666666666666: 88:1 116:1 obj 1\\
0.0333333333333341: 88:1 208:1 242:1 obj 1\\
2: 96:1 212:1 229:1 obj 1\\
1: 99:1 103:1 obj 1\\
1: 0:1 197:1 obj 1\\
4.5: 17:1 180:1 obj 1\\
2: 25:1 170:1 obj 1\\
2: 44:1 151:1 obj 1\\
3: 64:1 132:1 obj 1\\
2.400000000000001: 70:1 125:1 obj 1\\
2.333333333333333: 94:1 215:1 228:1 obj 1\\
3: 112:1 209:1 218:1 obj 1\\
0.8166666666666667: 129:1 202:1 210:1 obj 1\\
1: 210:1 225:3 obj 1\\
0.6666666666666666: 215:1 223:3 obj 1\\
0.01666666666666711: 221:4 obj 1\\
1.4: 9:1 193:1 obj 1\\
0.4000000000000004: 14:1 187:1 obj 1\\
2: 15:1 182:1 obj 1\\
2: 16:1 180:1 obj 1\\
1.5: 22:1 180:1 obj 1\\
1: 24:1 174:1 obj 1\\
1: 26:1 169:1 obj 1\\
2: 27:1 168:1 obj 1\\
1: 40:1 154:1 obj 1\\
3: 49:1 146:1 obj 1\\
2: 50:1 145:1 obj 1\\
2.5: 67:1 128:1 obj 1\\
1: 79:1 119:1 obj 1\\
1.400000000000001: 106:1 206:1 226:1 obj 1\\
3: 114:1 196:1 227:1 obj 1\\
1: 118:1 204:1 220:1 obj 1\\
0.5: 124:1 203:1 213:1 obj 1\\
2.533333333333334: 142:1 155:1 240:1 obj 1\\
1: 162:1 238:1 239:2 obj 1\\
1: 33:1 162:1 obj 1\\
1: 35:1 160:1 obj 1\\
3: 37:1 158:1 obj 1\\
2.466666666666666: 43:1 151:1 obj 1\\
0.4000000000000007: 73:1 230:1 234:1 obj 1\\
1: 75:1 120:1 obj 1\\
1: 76:1 222:1 239:1 obj 1\\
1: 77:1 227:1 232:1 obj 1\\
0.9333333333333316: 79:1 221:1 237:1 obj 1\\
0.06666666666666848: 79:1 226:1 233:1 obj 1\\
1: 84:1 110:1 obj 1\\
2: 85:1 112:1 obj 1\\
2: 86:1 108:1 obj 1\\
1: 108:1 207:1 223:1 obj 1\\
2: 110:1 213:1 217:1 obj 1\\
2: 114:1 208:1 219:1 obj 1\\
0.5: 140:1 155:1 242:1 obj 1\\
1: 155:1 241:3 obj 1\\
3: 41:1 153:1 obj 1\\
0.0333333333333341: 45:1 149:1 obj 1\\
1: 51:1 241:1 244:1 obj 1\\
0.7333333333333327: 70:1 233:2 obj 1\\
1: 116:1 202:1 222:1 obj 1\\
0.4666666666666659: 142:1 153:1 242:1 obj 1\\
0.8444444444444437: 205:1 226:3 obj 1\\
1.222222222222222: 205:1 228:3 obj 1\\
1: 218:1 221:3 obj 1\\
0.8249999999999997: 220:4 obj 1\\
2: 49:1 243:1 244:1 obj 1\\
0.6333333333333331: 128:1 206:2 obj 1\\
0.6666666666666666: 219:1 225:3 obj 1\\



